9 19 89 38 60 80 51 91 43 45 56 11 92 29 23 61 22 82 57 4 85 2 40 37 41 50 53 39 20 63 58 72 8 90 5 67 95 96 83 34 44 55 66 10 98 15 65 3 64 30 27 68 59 31 6 17 81 14 93 74 33 52 16 42 87 78 88 76 71 48 75 62 79 99 69 32 13 12 36 21 0 77 70 47 25 97 54 24 84 7 49 28 35 18 46 94 73 1 26 86